424 5
10 10 10 10 10 

0 0 0 0 0 0 5 2 14 26 38 50 
0 0 0 0 0 0 1 3 
2 3 0 0 0 0 1 4 
7 6 0 0 0 0 1 5 
9 7 0 0 0 0 2 8 6 
2 9 0 0 0 0 2 10 7 
4 9 0 0 0 0 1 9 
6 8 0 0 0 0 2 9 368 
2 7 0 0 0 0 2 12 11 
1 9 0 0 0 0 1 11 
5 7 0 0 0 0 1 13 
2 10 0 0 0 0 1 13 
0 0 0 0 0 0 1 62 
0 0 0 0 0 0 1 15 
8 0 0 1 0 0 1 16 
7 0 0 6 0 0 1 17 
9 0 0 10 0 0 1 18 
9 0 0 10 0 0 2 20 19 
8 0 0 9 0 0 2 22 21 
1 0 0 7 0 0 1 21 
9 0 0 5 0 0 2 24 23 
8 0 0 8 0 0 2 24 23 
9 0 0 10 0 0 2 25 282 
10 0 0 9 0 0 1 25 
0 0 0 0 0 0 1 62 
0 0 0 0 0 0 2 27 30 
9 5 0 0 0 0 1 28 
10 4 0 0 0 0 3 34 29 298 
6 5 0 0 0 0 1 31 
6 8 0 0 0 0 1 31 
10 10 0 0 0 0 1 32 
5 6 0 0 0 0 2 36 33 
9 10 0 0 0 0 1 35 
6 9 0 0 0 0 1 35 
5 10 0 0 0 0 1 37 
9 8 0 0 0 0 1 37 
0 0 0 0 0 0 1 62 
0 0 0 0 0 0 2 39 41 
10 0 0 3 0 0 1 40 
2 0 0 5 0 0 2 45 42 
7 0 0 10 0 0 2 45 42 
7 0 0 5 0 0 1 43 
10 0 0 10 0 0 2 48 44 
10 0 0 9 0 0 1 46 
3 0 0 10 0 0 1 46 
5 0 0 9 0 0 2 47 69 
3 0 0 5 0 0 1 49 
7 0 0 9 0 0 1 49 
0 0 0 0 0 0 1 62 
0 0 0 0 0 0 2 51 55 
3 0 5 0 0 0 2 54 52 
10 0 5 0 0 0 1 53 
8 0 8 0 0 0 2 60 56 
9 0 6 0 0 0 2 60 56 
9 0 10 0 0 0 3 60 56 381 
3 0 8 0 0 0 1 57 
1 0 8 0 0 0 1 58 
8 0 10 0 0 0 1 59 
10 0 10 0 0 0 1 61 
6 0 5 0 0 0 1 61 
0 0 0 0 0 0 1 62 
0 0 0 0 0 0 5 63 75 87 99 111 
0 0 0 0 0 0 2 64 66 
10 0 0 0 2 0 1 65 
6 0 0 0 9 0 2 70 67 
3 0 0 0 9 0 2 70 67 
4 0 0 0 6 0 1 68 
9 0 0 0 9 0 1 69 
3 0 0 0 7 0 2 71 333 
9 0 0 0 6 0 1 71 
6 0 0 0 10 0 2 73 72 
10 0 0 0 7 0 1 74 
10 0 0 0 10 0 1 74 
0 0 0 0 0 0 1 123 
0 0 0 0 0 0 2 76 78 
7 0 0 0 0 4 1 77 
2 0 0 0 0 6 2 85 80 
3 0 0 0 0 8 1 79 
2 0 0 0 0 8 2 85 82 
2 0 0 0 0 10 1 81 
4 0 0 0 0 9 1 82 
6 0 0 0 0 7 2 83 139 
2 0 0 0 0 6 1 84 
7 0 0 0 0 9 1 86 
6 0 0 0 0 8 1 86 
0 0 0 0 0 0 1 123 
0 0 0 0 0 0 4 88 90 94 95 
7 0 3 0 0 0 1 89 
9 0 10 0 0 0 1 91 
1 0 6 0 0 0 1 91 
8 0 8 0 0 0 1 92 
3 0 10 0 0 0 1 93 
9 0 5 0 0 0 1 96 
2 0 10 0 0 0 1 96 
9 0 7 0 0 0 2 96 191 
7 0 6 0 0 0 1 97 
6 0 10 0 0 0 1 98 
0 0 0 0 0 0 1 123 
0 0 0 0 0 0 2 100 103 
10 0 0 2 0 0 1 101 
1 0 0 6 0 0 2 102 384 
1 0 0 10 0 0 2 105 104 
1 0 0 4 0 0 2 105 104 
10 0 0 10 0 0 2 109 106 
9 0 0 9 0 0 2 109 108 
9 0 0 6 0 0 1 107 
7 0 0 10 0 0 1 108 
5 0 0 8 0 0 1 110 
2 0 0 10 0 0 1 110 
0 0 0 0 0 0 1 123 
0 0 0 0 0 0 2 112 113 
9 0 0 0 0 9 3 121 120 114 
4 0 0 0 0 5 3 121 120 116 
10 0 0 0 0 5 1 115 
5 0 0 0 0 7 1 116 
8 0 0 0 0 9 1 117 
8 0 0 0 0 6 1 118 
5 0 0 0 0 10 1 119 
8 0 0 0 0 7 1 122 
7 0 0 0 0 7 2 122 407 
5 0 0 0 0 10 1 122 
0 0 0 0 0 0 1 123 
0 0 0 0 0 0 5 124 136 168 200 232 
0 0 0 0 0 0 2 125 126 
4 0 0 2 0 0 2 129 127 
3 0 0 3 0 0 2 129 128 
10 0 0 10 0 0 1 128 
6 0 0 6 0 0 2 131 130 
10 0 0 7 0 0 1 130 
6 0 0 10 0 0 1 132 
5 0 0 9 0 0 1 132 
6 0 0 8 0 0 2 133 304 
2 0 0 10 0 0 1 134 
7 0 0 10 0 0 1 135 
0 0 0 0 0 0 5 264 286 308 330 342 
0 0 0 0 0 0 2 137 140 
1 2 5 0 0 5 1 138 
7 9 7 0 0 3 1 139 
8 8 6 0 0 7 2 142 141 
7 9 9 0 0 5 1 141 
10 8 7 0 0 6 2 143 394 
3 10 10 0 0 6 1 143 
10 7 10 0 0 10 2 147 144 
3 9 5 0 0 6 1 145 
5 5 9 0 0 7 2 149 146 
6 10 8 0 0 5 2 154 148 
4 9 3 0 0 8 2 149 148 
7 7 6 0 0 7 1 150 
3 6 10 0 0 7 1 150 
6 8 3 0 0 7 2 156 151 
3 6 9 0 0 7 1 152 
10 6 8 0 0 4 2 162 153 
9 4 7 0 0 10 2 161 155 
4 5 10 0 0 7 3 162 161 158 
9 5 8 0 0 10 1 157 
6 7 9 0 0 7 1 157 
10 7 7 0 0 10 1 158 
2 9 10 0 0 9 1 159 
9 8 8 0 0 9 1 160 
8 10 9 0 0 10 1 163 
7 9 7 0 0 10 1 163 
2 10 4 0 0 8 1 163 
9 5 7 0 0 10 1 164 
6 7 7 0 0 5 1 165 
2 10 8 0 0 10 1 166 
7 10 9 0 0 10 1 167 
0 0 0 0 0 0 1 424 
0 0 0 0 0 0 2 169 181 
1 0 1 9 0 2 1 170 
1 0 6 4 0 4 1 171 
1 0 10 8 0 10 1 172 
6 0 10 10 0 6 1 173 
5 0 10 5 0 10 2 179 174 
9 0 6 2 0 7 1 175 
7 0 7 8 0 8 1 176 
1 0 7 9 0 10 3 186 180 177 
6 0 7 6 0 8 2 183 178 
7 0 8 6 0 8 3 188 185 182 
1 0 9 7 0 10 2 188 182 
8 0 10 5 0 9 2 188 184 
4 0 10 5 0 7 1 182 
7 0 7 8 0 6 1 184 
4 0 7 10 0 7 1 184 
7 0 7 5 0 10 1 187 
1 0 10 10 0 5 1 187 
8 0 7 6 0 10 1 188 
7 0 6 10 0 10 1 189 
9 0 10 10 0 7 1 189 
2 0 8 9 0 6 1 190 
3 0 8 5 0 7 2 194 191 
2 0 8 10 0 8 1 192 
9 0 6 5 0 5 1 193 
6 0 8 6 0 9 1 195 
5 0 7 9 0 10 1 195 
10 0 4 8 0 10 1 196 
4 0 7 10 0 4 1 197 
2 0 7 10 0 4 1 198 
7 0 7 10 0 8 1 199 
0 0 0 0 0 0 1 424 
0 0 0 0 0 0 2 201 207 
8 1 0 0 5 4 1 202 
4 5 0 0 4 7 2 205 203 
7 10 0 0 4 10 1 204 
2 10 0 0 6 8 1 206 
10 7 0 0 7 3 1 206 
10 6 0 0 10 8 2 213 208 
5 10 0 0 6 6 2 213 208 
4 7 0 0 4 10 1 209 
7 2 0 0 9 6 2 222 210 
4 8 0 0 10 6 1 211 
7 10 0 0 9 7 1 212 
4 4 0 0 4 8 3 227 220 215 
10 9 0 0 9 6 1 214 
2 10 0 0 10 10 2 227 216 
2 10 0 0 10 7 1 216 
6 6 0 0 5 8 2 230 217 
8 10 0 0 7 9 1 218 
1 6 0 0 5 5 1 219 
6 9 0 0 9 9 1 221 
6 7 0 0 10 6 1 221 
8 9 0 0 10 6 1 223 
4 7 0 0 7 8 3 230 227 226 
4 10 0 0 9 10 1 224 
10 5 0 0 10 9 1 225 
6 10 0 0 10 10 1 226 
9 6 0 0 6 5 1 228 
7 6 0 0 6 6 1 228 
6 6 0 0 6 9 1 229 
7 9 0 0 8 10 1 231 
3 10 0 0 10 9 1 231 
0 0 0 0 0 0 1 424 
0 0 0 0 0 0 2 233 262 
7 3 0 0 3 4 1 234 
6 5 0 0 5 7 1 235 
4 6 0 0 9 7 1 236 
5 6 0 0 6 4 1 237 
10 7 0 0 7 4 2 261 238 
8 5 0 0 5 6 1 239 
7 9 0 0 3 10 1 240 
1 8 0 0 6 8 5 260 256 248 245 241 
4 10 0 0 9 8 1 242 
7 5 0 0 8 8 2 247 243 
1 4 0 0 10 5 1 244 
9 10 0 0 9 9 1 246 
4 9 0 0 10 10 1 247 
6 7 0 0 6 8 1 249 
8 8 0 0 8 8 1 249 
8 10 0 0 10 10 1 249 
7 10 0 0 4 10 1 250 
8 5 0 0 10 9 2 259 251 
10 9 0 0 9 10 1 252 
5 7 0 0 8 6 1 253 
1 7 0 0 9 5 1 254 
8 10 0 0 9 5 1 255 
7 10 0 0 6 10 1 257 
2 7 0 0 6 9 1 257 
6 5 0 0 10 10 1 258 
2 7 0 0 10 10 1 263 
5 9 0 0 10 8 1 263 
9 9 0 0 6 7 1 263 
1 8 0 0 9 3 1 263 
2 10 0 0 5 7 1 263 
0 0 0 0 0 0 1 424 
0 0 0 0 0 0 1 265 
5 0 0 3 6 0 2 271 266 
3 0 0 4 7 0 1 267 
2 0 0 4 10 0 1 268 
1 0 0 9 10 0 2 275 269 
7 0 0 10 8 0 1 270 
9 0 0 8 10 0 2 277 272 
4 0 0 9 3 0 2 275 273 
3 0 0 8 7 0 1 273 
2 0 0 6 6 0 2 281 274 
8 0 0 10 10 0 1 276 
6 0 0 7 10 0 1 277 
6 0 0 10 9 0 2 282 278 
4 0 0 7 8 0 2 281 278 
8 0 0 7 5 0 1 279 
3 0 0 10 9 0 1 280 
7 0 0 4 10 0 1 283 
4 0 0 10 10 0 1 283 
5 0 0 6 1 0 1 283 
3 0 0 8 7 0 1 284 
5 0 0 10 4 0 1 285 
0 0 0 0 0 0 1 424 
0 0 0 0 0 0 2 287 295 
9 0 5 0 0 1 2 302 288 
4 0 5 0 0 10 1 289 
5 0 8 0 0 7 2 306 290 
1 0 7 0 0 9 1 291 
3 0 9 0 0 4 2 305 292 
8 0 8 0 0 6 1 293 
5 0 3 0 0 9 2 299 294 
8 0 10 0 0 8 1 296 
6 0 10 0 0 2 1 296 
2 0 5 0 0 10 1 297 
1 0 7 0 0 8 1 298 
7 0 3 0 0 7 1 300 
10 0 8 0 0 10 1 300 
2 0 9 0 0 8 1 301 
10 0 10 0 0 7 1 303 
4 0 9 0 0 9 1 303 
3 0 10 0 0 8 1 304 
3 0 7 0 0 10 1 307 
10 0 8 0 0 7 1 307 
10 0 9 0 0 10 1 307 
0 0 0 0 0 0 1 424 
0 0 0 0 0 0 1 309 
4 2 0 0 4 0 2 318 310 
9 5 0 0 10 0 1 311 
5 5 0 0 4 0 2 320 312 
1 8 0 0 8 0 1 313 
7 7 0 0 10 0 1 314 
5 6 0 0 10 0 2 321 315 
9 10 0 0 10 0 1 316 
5 8 0 0 8 0 2 328 317 
3 10 0 0 10 0 1 319 
8 10 0 0 5 0 1 319 
1 8 0 0 10 0 2 325 322 
6 4 0 0 6 0 1 321 
9 8 0 0 8 0 2 328 323 
6 10 0 0 3 0 1 323 
4 8 0 0 5 0 1 324 
6 10 0 0 10 0 1 326 
9 9 0 0 10 0 1 326 
7 8 0 0 7 0 1 327 
6 8 0 0 10 0 1 329 
1 6 0 0 2 0 1 329 
0 0 0 0 0 0 1 424 
0 0 0 0 0 0 1 331 
5 0 0 3 0 0 2 338 332 
2 0 0 10 0 0 2 334 333 
1 0 0 9 0 0 2 337 335 
1 0 0 10 0 0 2 337 336 
3 0 0 8 0 0 1 336 
7 0 0 5 0 0 1 339 
6 0 0 10 0 0 1 339 
7 0 0 7 0 0 1 339 
5 0 0 3 0 0 1 340 
10 0 0 10 0 0 1 341 
0 0 0 0 0 0 5 364 376 388 400 412 
0 0 0 0 0 0 3 343 357 362 
6 0 4 0 0 4 2 361 344 
9 0 9 0 0 8 1 345 
10 0 6 0 0 6 1 346 
4 0 5 0 0 10 1 347 
2 0 10 0 0 4 2 360 348 
4 0 7 0 0 10 2 355 349 
8 0 10 0 0 9 1 350 
7 0 10 0 0 10 1 351 
1 0 8 0 0 10 1 352 
7 0 3 0 0 8 1 353 
9 0 8 0 0 10 1 354 
5 0 10 0 0 4 1 356 
8 0 9 0 0 7 1 356 
9 0 7 0 0 8 1 358 
4 0 6 0 0 5 1 358 
6 0 5 0 0 6 1 359 
1 0 9 0 0 9 1 363 
7 0 10 0 0 7 1 363 
10 0 6 0 0 7 1 363 
8 0 8 0 0 8 1 363 
0 0 0 0 0 0 1 424 
0 0 0 0 0 0 3 365 368 371 
9 2 0 0 0 0 1 366 
3 5 0 0 0 0 1 367 
6 7 0 0 0 0 2 374 369 
10 10 0 0 0 0 2 374 372 
6 9 0 0 0 0 1 370 
7 8 0 0 0 0 1 372 
10 7 0 0 0 0 1 372 
7 9 0 0 0 0 1 373 
8 10 0 0 0 0 1 375 
1 8 0 0 0 0 1 375 
0 0 0 0 0 0 1 424 
0 0 0 0 0 0 2 377 384 
8 0 0 0 2 0 1 378 
9 0 0 0 6 0 1 379 
6 0 0 0 7 0 2 381 380 
6 0 0 0 10 0 1 382 
10 0 0 0 10 0 1 382 
1 0 0 0 9 0 1 383 
1 0 0 0 5 0 2 386 385 
4 0 0 0 10 0 1 385 
10 0 0 0 6 0 1 387 
1 0 0 0 10 0 1 387 
0 0 0 0 0 0 1 424 
0 0 0 0 0 0 2 389 395 
7 0 0 0 3 0 2 392 390 
7 0 0 0 4 0 1 391 
6 0 0 0 9 0 1 393 
5 0 0 0 8 0 1 393 
7 0 0 0 9 0 1 394 
9 0 0 0 7 0 2 398 396 
5 0 0 0 10 0 2 398 396 
10 0 0 0 10 0 1 397 
1 0 0 0 5 0 1 399 
7 0 0 0 10 0 1 399 
0 0 0 0 0 0 1 424 
0 0 0 0 0 0 1 401 
2 0 0 0 0 1 2 404 402 
7 0 0 0 0 9 1 403 
6 0 0 0 0 6 2 408 405 
6 0 0 0 0 7 2 408 406 
1 0 0 0 0 10 1 406 
1 0 0 0 0 7 2 410 407 
5 0 0 0 0 10 1 409 
6 0 0 0 0 7 1 409 
9 0 0 0 0 10 1 411 
5 0 0 0 0 8 1 411 
0 0 0 0 0 0 1 424 
0 0 0 0 0 0 2 413 414 
6 0 0 0 0 7 2 417 415 
6 0 0 0 0 7 2 417 416 
4 0 0 0 0 5 1 416 
1 0 0 0 0 10 1 418 
5 0 0 0 0 6 1 418 
3 0 0 0 0 8 1 419 
10 0 0 0 0 9 1 420 
6 0 0 0 0 5 2 422 421 
6 0 0 0 0 10 1 423 
6 0 0 0 0 8 1 423 
0 0 0 0 0 0 1 424 
0 0 0 0 0 0 0 
